SCIP Status        : problem creation / modification
Total Time         :       0.08
  reading          :       0.08
Original Problem   :
  Problem name     : main4.zpl
  Variables        : 6795 (6795 binary, 0 integer, 0 implicit integer, 0 continuous)
  Constraints      : 0 initial, 6945 maximal
  Objective        : minimize, 6795 non-zeros (abs.min = 0.00034, abs.max = 5700)
